#######################



#######################
Set parameter TimeLimit to value 300
Set parameter SoftMemLimit to value 125
Set parameter MIPFocus to value 3
Set parameter LogFile to value 1202-MIPFocus3-Presolve2-TimeLimit300-k16x240-2.log
Set parameter Presolve to value 2
Set parameter Seed to value 2
Using license file /opt/gurobi/gurobi.lic

Gurobi Optimizer version 12.0.2 build v12.0.2rc0 (linux64 - "Ubuntu 22.04.4 LTS")
Copyright (c) 2025, Gurobi Optimization, LLC

Read MPS format model from file /miplib2010/k16x240.mps.bz2
Reading time = 0.00 seconds
k16x240: 256 rows, 480 columns, 960 nonzeros

Using Gurobi shared library /nfs/shared/static-builds/gurobi1202

CPU model: Intel(R) Xeon(R) E-2388G CPU @ 3.20GHz, instruction set [SSE2|AVX|AVX2|AVX512]
Thread count: 8 physical cores, 16 logical processors, using up to 16 threads

Non-default parameters:
TimeLimit  300
SoftMemLimit  125
MIPFocus  3
Presolve  2
Seed  2

Optimize a model with 256 rows, 480 columns and 960 nonzeros
Model fingerprint: 0x4e80885f
Variable types: 240 continuous, 240 integer (240 binary)
Coefficient statistics:
  Matrix range     [1e+00, 1e+03]
  Objective range  [1e+00, 1e+03]
  Bounds range     [1e+00, 1e+03]
  RHS range        [4e+00, 4e+02]
Found heuristic solution: objective 20929.000000
Presolve time: 0.00s
Presolved: 256 rows, 480 columns, 960 nonzeros
Variable types: 240 continuous, 240 integer (240 binary)
Root relaxation presolve removed 241 rows and 240 columns
Root relaxation presolved: 15 rows, 240 columns, 450 nonzeros


Root relaxation: objective 2.769838e+03, 16 iterations, 0.00 seconds (0.00 work units)

    Nodes    |    Current Node    |     Objective Bounds      |     Work
 Expl Unexpl |  Obj  Depth IntInf | Incumbent    BestBd   Gap | It/Node Time

     0     0 2769.83800    0   14 20929.0000 2769.83800  86.8%     -    0s
H    0     0                    11359.000000 2769.83800  75.6%     -    0s
H    0     0                    11320.000000 2769.83800  75.5%     -    0s
H    0     0                    11287.000000 2769.83800  75.5%     -    0s
H    0     0                    11248.000000 2769.83800  75.4%     -    0s
H    0     0                    11245.000000 2769.83800  75.4%     -    0s
H    0     0                    11240.000000 8116.87580  27.8%     -    0s
H    0     0                    11140.000000 8116.87580  27.1%     -    0s
H    0     0                    10895.000000 8116.87580  25.5%     -    0s
     0     0 8116.87580    0   26 10895.0000 8116.87580  25.5%     -    0s
H    0     0                    10877.000000 8182.85928  24.8%     -    0s
H    0     0                    10873.000000 8182.85928  24.7%     -    0s
H    0     0                    10843.000000 8182.85928  24.5%     -    0s
     0     0 8751.29955    0   23 10843.0000 8751.29955  19.3%     -    0s
     0     0 8751.29955    0   20 10843.0000 8751.29955  19.3%     -    0s
     0     0 8810.95744    0   21 10843.0000 8810.95744  18.7%     -    0s
     0     0 8810.95744    0   18 10843.0000 8810.95744  18.7%     -    0s
     0     0 9046.36529    0   29 10843.0000 9046.36529  16.6%     -    0s
H    0     0                    10765.000000 9046.36529  16.0%     -    0s
     0     0 9046.36529    0   32 10765.0000 9046.36529  16.0%     -    0s
     0     0 9135.20764    0   39 10765.0000 9135.20764  15.1%     -    0s
     0     0 9135.20764    0   39 10765.0000 9135.20764  15.1%     -    0s
     0     0 9184.77821    0   30 10765.0000 9184.77821  14.7%     -    0s
     0     0 9226.30790    0   29 10765.0000 9226.30790  14.3%     -    0s
     0     0 9265.41800    0   29 10765.0000 9265.41800  13.9%     -    0s
H    0     0                    10763.000000 9265.41800  13.9%     -    0s
H    0     0                    10678.000000 9265.41800  13.2%     -    0s
     0     2 9265.41800    0   29 10678.0000 9265.41800  13.2%     -    0s
H  101   111                    10674.000000 9424.84127  11.7%  61.1    0s
  3967  3026 10417.5209   22   36 10674.0000 10241.2432  4.05%  98.2    5s
 15169  7787     cutoff   31      10674.0000 10460.6709  2.00%  73.0   10s

Cutting planes:
  Lift-and-project: 12
  Cover: 1
  Implied bound: 12
  Dual implied bound: 5
  MIR: 116
  Mixing: 1
  Flow cover: 532
  Flow path: 33
  Zero half: 27
  Network: 22
  Relax-and-lift: 4

Explored 40475 nodes (1762565 simplex iterations) in 14.11 seconds (20.01 work units)
Thread count was 16 (of 16 available processors)

Solution count 10: 10674 10678 10763 ... 11240

Optimal solution found (tolerance 1.00e-04)
Best objective 1.067400000000e+04, best bound 1.067300000000e+04, gap 0.0094%
